c preprocessed version of SylvesterGraph, 36 vertices, 90 edges
p td 36 90
0 1
0 13
0 17
0 21
0 26
1 16
1 20
1 25
1 29
2 4
2 5
2 16
2 18
2 28
3 5
3 10
3 19
3 21
3 29
4 11
4 13
4 20
4 22
5 14
5 24
5 26
6 8
6 9
6 20
6 24
6 27
7 9
7 10
7 13
7 25
7 28
8 11
8 14
8 17
8 29
9 15
9 18
9 21
10 11
12 14
12 19
12 25
12 30
12 31
13 14
14 15
15 16
17 18
18 19
19 20
21 22
22 24
23 10
23 15
23 20
23 26
23 31
24 25
26 27
27 28
28 29
30 11
30 16
30 21
30 27
31 17
31 22
31 28
32 15
32 22
32 29
32 34
32 35
33 10
33 16
33 17
33 24
33 35
34 11
34 18
34 25
34 26
35 13
35 19
35 27
